NAME: perso9
TYPE: TSP
COMMENT: 9 locations ; best minimum tree = 1861 
DIMENSION: 9
EDGE_WEIGHT_TYPE: EUC_2D
NODE_COORD_SECTION
1 565.0 575.0
2 25.0 185.0
3 345.0 750.0
4 845.0 685.0
5 345.0 655.0
EOF

